50
1 0 33
2 0 26
2 1 10
3 0 26
3 1 2
3 2 11
4 0 32
4 1 39
4 2 8
4 3 7
5 0 14
5 1 15
5 2 5
5 3 19
5 4 20
6 0 21
6 1 28
6 2 2
6 3 8
6 4 29
6 5 38
7 0 30
7 1 14
7 2 18
7 3 9
7 4 14
7 5 21
7 6 38
8 0 14
8 1 24
8 2 7
8 3 36
8 4 26
8 5 21
8 6 2
8 7 2
9 0 20
9 1 26
9 2 33
9 3 40
9 4 15
9 5 38
9 6 1
9 7 26
9 8 33
10 0 34
10 1 25
10 2 9
10 3 38
10 4 14
10 5 9
10 6 21
10 7 38
10 8 2
10 9 21
11 0 38
11 1 4
11 2 2
11 3 5
11 4 25
11 5 9
11 6 22
11 7 29
11 8 18
11 9 16
11 10 27
12 0 16
12 1 36
12 2 20
12 3 8
12 4 37
12 5 4
12 6 30
12 7 2
12 8 20
12 9 14
12 10 22
12 11 12
13 0 33
13 1 4
13 2 11
13 3 31
13 4 36
13 5 5
13 6 19
13 7 2
13 8 25
13 9 12
13 10 1
13 11 14
13 12 9
14 0 25
14 1 40
14 2 40
14 3 14
14 4 24
14 5 15
14 6 13
14 7 31
14 8 33
14 9 30
14 10 34
14 11 19
14 12 15
14 13 31
15 0 20
15 1 17
15 2 26
15 3 4
15 4 10
15 5 16
15 6 24
15 7 23
15 8 40
15 9 25
15 10 7
15 11 19
15 12 3
15 13 37
15 14 1
16 0 1
16 1 12
16 2 33
16 3 17
16 4 38
16 5 28
16 6 35
16 7 31
16 8 15
16 9 13
16 10 2
16 11 29
16 12 6
16 13 24
16 14 25
16 15 12
17 0 9
17 1 12
17 2 30
17 3 18
17 4 35
17 5 2
17 6 29
17 7 27
17 8 33
17 9 34
17 10 4
17 11 31
17 12 27
17 13 7
17 14 15
17 15 5
17 16 33
18 0 25
18 1 11
18 2 21
18 3 11
18 4 40
18 5 12
18 6 1
18 7 30
18 8 17
18 9 9
18 10 38
18 11 39
18 12 39
18 13 6
18 14 4
18 15 3
18 16 31
18 17 26
19 0 37
19 1 29
19 2 20
19 3 12
19 4 4
19 5 2
19 6 34
19 7 8
19 8 33
19 9 22
19 10 27
19 11 20
19 12 25
19 13 38
19 14 2
19 15 1
19 16 32
19 17 10
19 18 14
20 0 24
20 1 19
20 2 14
20 3 31
20 4 21
20 5 39
20 6 23
20 7 17
20 8 9
20 9 7
20 10 21
20 11 37
20 12 14
20 13 32
20 14 37
20 15 3
20 16 24
20 17 38
20 18 1
20 19 26
21 0 36
21 1 13
21 2 4
21 3 20
21 4 8
21 5 36
21 6 18
21 7 30
21 8 25
21 9 37
21 10 34
21 11 29
21 12 27
21 13 29
21 14 10
21 15 11
21 16 5
21 17 23
21 18 18
21 19 29
21 20 20
22 0 18
22 1 31
22 2 35
22 3 8
22 4 30
22 5 1
22 6 19
22 7 38
22 8 37
22 9 16
22 10 12
22 11 6
22 12 39
22 13 39
22 14 24
22 15 32
22 16 3
22 17 37
22 18 28
22 19 23
22 20 30
22 21 36
23 0 36
23 1 12
23 2 9
23 3 32
23 4 2
23 5 11
23 6 14
23 7 40
23 8 13
23 9 38
23 10 36
23 11 40
23 12 12
23 13 14
23 14 37
23 15 32
23 16 39
23 17 21
23 18 33
23 19 20
23 20 29
23 21 33
23 22 15
24 0 5
24 1 14
24 2 34
24 3 20
24 4 14
24 5 3
24 6 12
24 7 29
24 8 34
24 9 38
24 10 38
24 11 28
24 12 21
24 13 30
24 14 38
24 15 3
24 16 22
24 17 36
24 18 27
24 19 32
24 20 10
24 21 32
24 22 35
24 23 7
25 0 2
25 1 33
25 2 4
25 3 37
25 4 8
25 5 9
25 6 25
25 7 24
25 8 37
25 9 40
25 10 5
25 11 2
25 12 2
25 13 30
25 14 37
25 15 12
25 16 27
25 17 27
25 18 30
25 19 23
25 20 37
25 21 1
25 22 39
25 23 8
25 24 8
26 0 24
26 1 1
26 2 9
26 3 14
26 4 13
26 5 22
26 6 28
26 7 28
26 8 27
26 9 5
26 10 17
26 11 38
26 12 28
26 13 36
26 14 20
26 15 37
26 16 40
26 17 15
26 18 24
26 19 24
26 20 25
26 21 14
26 22 17
26 23 34
26 24 38
26 25 17
27 0 14
27 1 22
27 2 39
27 3 31
27 4 4
27 5 29
27 6 22
27 7 12
27 8 20
27 9 32
27 10 23
27 11 33
27 12 7
27 13 22
27 14 39
27 15 22
27 16 29
27 17 20
27 18 8
27 19 27
27 20 7
27 21 36
27 22 19
27 23 18
27 24 18
27 25 26
27 26 1
28 0 1
28 1 29
28 2 10
28 3 5
28 4 5
28 5 3
28 6 28
28 7 17
28 8 17
28 9 26
28 10 20
28 11 8
28 12 29
28 13 19
28 14 28
28 15 15
28 16 25
28 17 17
28 18 6
28 19 16
28 20 29
28 21 1
28 22 1
28 23 11
28 24 19
28 25 14
28 26 23
28 27 24
29 0 1
29 1 27
29 2 37
29 3 7
29 4 37
29 5 7
29 6 38
29 7 20
29 8 15
29 9 24
29 10 22
29 11 19
29 12 17
29 13 22
29 14 19
29 15 32
29 16 17
29 17 2
29 18 24
29 19 7
29 20 16
29 21 24
29 22 37
29 23 7
29 24 12
29 25 23
29 26 35
29 27 15
29 28 11
30 0 29
30 1 29
30 2 40
30 3 23
30 4 22
30 5 5
30 6 21
30 7 16
30 8 14
30 9 12
30 10 28
30 11 37
30 12 7
30 13 35
30 14 33
30 15 26
30 16 26
30 17 36
30 18 29
30 19 10
30 20 20
30 21 21
30 22 12
30 23 39
30 24 30
30 25 33
30 26 25
30 27 7
30 28 5
30 29 20
31 0 11
31 1 16
31 2 21
31 3 37
31 4 8
31 5 12
31 6 1
31 7 31
31 8 9
31 9 6
31 10 32
31 11 26
31 12 39
31 13 33
31 14 30
31 15 2
31 16 6
31 17 13
31 18 22
31 19 17
31 20 39
31 21 28
31 22 39
31 23 29
31 24 22
31 25 15
31 26 7
31 27 15
31 28 17
31 29 15
31 30 17
32 0 17
32 1 19
32 2 15
32 3 30
32 4 22
32 5 39
32 6 40
32 7 39
32 8 4
32 9 18
32 10 4
32 11 25
32 12 17
32 13 34
32 14 2
32 15 13
32 16 38
32 17 25
32 18 33
32 19 33
32 20 35
32 21 20
32 22 34
32 23 31
32 24 29
32 25 17
32 26 34
32 27 30
32 28 24
32 29 5
32 30 39
32 31 17
33 0 4
33 1 24
33 2 37
33 3 26
33 4 27
33 5 31
33 6 38
33 7 31
33 8 4
33 9 38
33 10 12
33 11 28
33 12 37
33 13 10
33 14 29
33 15 22
33 16 32
33 17 8
33 18 26
33 19 22
33 20 11
33 21 24
33 22 8
33 23 35
33 24 6
33 25 25
33 26 29
33 27 19
33 28 31
33 29 20
33 30 40
33 31 37
33 32 32
34 0 33
34 1 32
34 2 8
34 3 36
34 4 7
34 5 37
34 6 23
34 7 11
34 8 11
34 9 32
34 10 7
34 11 9
34 12 5
34 13 29
34 14 35
34 15 8
34 16 5
34 17 12
34 18 24
34 19 23
34 20 17
34 21 27
34 22 12
34 23 26
34 24 19
34 25 13
34 26 32
34 27 22
34 28 39
34 29 11
34 30 31
34 31 22
34 32 10
34 33 29
35 0 15
35 1 14
35 2 9
35 3 38
35 4 34
35 5 26
35 6 13
35 7 24
35 8 36
35 9 7
35 10 29
35 11 35
35 12 8
35 13 35
35 14 8
35 15 7
35 16 8
35 17 31
35 18 11
35 19 19
35 20 18
35 21 30
35 22 12
35 23 32
35 24 40
35 25 27
35 26 40
35 27 18
35 28 17
35 29 4
35 30 15
35 31 12
35 32 25
35 33 23
35 34 34
36 0 14
36 1 25
36 2 22
36 3 26
36 4 24
36 5 30
36 6 9
36 7 3
36 8 23
36 9 5
36 10 29
36 11 16
36 12 23
36 13 6
36 14 27
36 15 4
36 16 38
36 17 26
36 18 37
36 19 32
36 20 8
36 21 28
36 22 1
36 23 20
36 24 31
36 25 10
36 26 27
36 27 15
36 28 37
36 29 13
36 30 14
36 31 13
36 32 22
36 33 1
36 34 27
36 35 40
37 0 16
37 1 4
37 2 13
37 3 14
37 4 38
37 5 15
37 6 23
37 7 3
37 8 18
37 9 16
37 10 32
37 11 33
37 12 24
37 13 17
37 14 12
37 15 18
37 16 8
37 17 5
37 18 15
37 19 11
37 20 5
37 21 39
37 22 1
37 23 26
37 24 25
37 25 2
37 26 30
37 27 25
37 28 1
37 29 25
37 30 36
37 31 20
37 32 11
37 33 8
37 34 36
37 35 11
37 36 23
38 0 11
38 1 12
38 2 18
38 3 17
38 4 14
38 5 17
38 6 32
38 7 34
38 8 39
38 9 27
38 10 2
38 11 5
38 12 26
38 13 20
38 14 15
38 15 34
38 16 4
38 17 10
38 18 6
38 19 1
38 20 5
38 21 35
38 22 33
38 23 7
38 24 35
38 25 8
38 26 14
38 27 3
38 28 24
38 29 27
38 30 24
38 31 19
38 32 5
38 33 20
38 34 2
38 35 25
38 36 13
38 37 12
39 0 9
39 1 5
39 2 24
39 3 17
39 4 38
39 5 33
39 6 4
39 7 35
39 8 20
39 9 24
39 10 12
39 11 31
39 12 31
39 13 13
39 14 38
39 15 36
39 16 21
39 17 14
39 18 18
39 19 22
39 20 38
39 21 4
39 22 21
39 23 28
39 24 16
39 25 1
39 26 23
39 27 22
39 28 3
39 29 27
39 30 37
39 31 29
39 32 18
39 33 23
39 34 40
39 35 15
39 36 20
39 37 22
39 38 8
40 0 28
40 1 19
40 2 17
40 3 32
40 4 5
40 5 35
40 6 2
40 7 17
40 8 37
40 9 12
40 10 22
40 11 30
40 12 33
40 13 20
40 14 2
40 15 12
40 16 4
40 17 22
40 18 34
40 19 1
40 20 20
40 21 31
40 22 21
40 23 17
40 24 12
40 25 23
40 26 4
40 27 34
40 28 28
40 29 23
40 30 37
40 31 40
40 32 33
40 33 23
40 34 19
40 35 33
40 36 40
40 37 21
40 38 40
40 39 15
41 0 35
41 1 40
41 2 21
41 3 10
41 4 30
41 5 13
41 6 35
41 7 33
41 8 2
41 9 4
41 10 27
41 11 4
41 12 34
41 13 38
41 14 17
41 15 11
41 16 40
41 17 26
41 18 10
41 19 1
41 20 36
41 21 32
41 22 30
41 23 11
41 24 23
41 25 40
41 26 3
41 27 39
41 28 4
41 29 40
41 30 13
41 31 36
41 32 17
41 33 12
41 34 24
41 35 36
41 36 31
41 37 11
41 38 31
41 39 33
41 40 31
42 0 28
42 1 12
42 2 40
42 3 27
42 4 8
42 5 29
42 6 15
42 7 36
42 8 8
42 9 2
42 10 5
42 11 23
42 12 5
42 13 1
42 14 36
42 15 28
42 16 10
42 17 21
42 18 26
42 19 39
42 20 8
42 21 5
42 22 34
42 23 33
42 24 38
42 25 21
42 26 22
42 27 40
42 28 8
42 29 1
42 30 15
42 31 13
42 32 2
42 33 22
42 34 38
42 35 14
42 36 22
42 37 35
42 38 23
42 39 10
42 40 25
42 41 1
43 0 35
43 1 21
43 2 5
43 3 30
43 4 9
43 5 10
43 6 20
43 7 1
43 8 18
43 9 2
43 10 40
43 11 27
43 12 7
43 13 40
43 14 11
43 15 21
43 16 13
43 17 40
43 18 9
43 19 34
43 20 13
43 21 20
43 22 7
43 23 40
43 24 20
43 25 19
43 26 26
43 27 15
43 28 4
43 29 11
43 30 22
43 31 40
43 32 18
43 33 17
43 34 16
43 35 38
43 36 25
43 37 22
43 38 2
43 39 25
43 40 24
43 41 17
43 42 29
44 0 3
44 1 16
44 2 10
44 3 24
44 4 40
44 5 5
44 6 35
44 7 14
44 8 18
44 9 23
44 10 33
44 11 40
44 12 4
44 13 5
44 14 36
44 15 11
44 16 20
44 17 32
44 18 5
44 19 11
44 20 3
44 21 39
44 22 37
44 23 3
44 24 17
44 25 29
44 26 3
44 27 29
44 28 2
44 29 11
44 30 35
44 31 19
44 32 14
44 33 37
44 34 10
44 35 23
44 36 28
44 37 35
44 38 1
44 39 26
44 40 32
44 41 25
44 42 16
44 43 25
45 0 37
45 1 15
45 2 21
45 3 31
45 4 15
45 5 32
45 6 29
45 7 8
45 8 19
45 9 35
45 10 18
45 11 5
45 12 32
45 13 38
45 14 10
45 15 10
45 16 29
45 17 6
45 18 26
45 19 25
45 20 9
45 21 23
45 22 39
45 23 26
45 24 15
45 25 5
45 26 5
45 27 33
45 28 25
45 29 36
45 30 33
45 31 30
45 32 5
45 33 23
45 34 9
45 35 13
45 36 33
45 37 26
45 38 32
45 39 8
45 40 20
45 41 12
45 42 6
45 43 32
45 44 15
46 0 34
46 1 23
46 2 28
46 3 23
46 4 27
46 5 18
46 6 5
46 7 2
46 8 33
46 9 21
46 10 18
46 11 33
46 12 9
46 13 2
46 14 22
46 15 11
46 16 8
46 17 5
46 18 7
46 19 36
46 20 37
46 21 32
46 22 22
46 23 12
46 24 36
46 25 24
46 26 39
46 27 17
46 28 22
46 29 31
46 30 1
46 31 2
46 32 21
46 33 13
46 34 37
46 35 39
46 36 21
46 37 16
46 38 1
46 39 31
46 40 16
46 41 6
46 42 8
46 43 31
46 44 39
46 45 27
47 0 34
47 1 25
47 2 1
47 3 24
47 4 3
47 5 31
47 6 8
47 7 31
47 8 30
47 9 27
47 10 21
47 11 1
47 12 23
47 13 17
47 14 17
47 15 27
47 16 33
47 17 5
47 18 3
47 19 22
47 20 34
47 21 25
47 22 2
47 23 30
47 24 31
47 25 32
47 26 21
47 27 1
47 28 4
47 29 31
47 30 33
47 31 36
47 32 25
47 33 39
47 34 5
47 35 31
47 36 22
47 37 26
47 38 36
47 39 19
47 40 16
47 41 14
47 42 6
47 43 13
47 44 31
47 45 15
47 46 28
48 0 20
48 1 30
48 2 15
48 3 36
48 4 39
48 5 39
48 6 22
48 7 24
48 8 39
48 9 27
48 10 37
48 11 17
48 12 10
48 13 30
48 14 5
48 15 17
48 16 21
48 17 36
48 18 40
48 19 29
48 20 12
48 21 34
48 22 24
48 23 33
48 24 30
48 25 19
48 26 39
48 27 26
48 28 7
48 29 14
48 30 38
48 31 19
48 32 14
48 33 10
48 34 35
48 35 9
48 36 37
48 37 30
48 38 35
48 39 40
48 40 26
48 41 13
48 42 8
48 43 28
48 44 31
48 45 23
48 46 28
48 47 39
49 0 4
49 1 13
49 2 25
49 3 4
49 4 35
49 5 39
49 6 31
49 7 18
49 8 2
49 9 38
49 10 18
49 11 19
49 12 18
49 13 28
49 14 12
49 15 24
49 16 20
49 17 1
49 18 35
49 19 17
49 20 7
49 21 1
49 22 32
49 23 37
49 24 10
49 25 36
49 26 33
49 27 28
49 28 6
49 29 9
49 30 1
49 31 24
49 32 35
49 33 25
49 34 37
49 35 36
49 36 5
49 37 38
49 38 17
49 39 10
49 40 7
49 41 8
49 42 34
49 43 40
49 44 8
49 45 2
49 46 7
49 47 4
49 48 16
